p sp 10 13
c
a 1 2 20
a 2 1 20
a 1 3 45
a 3 1 45
a 2 4 10
a 4 2 10
a 3 4 5
a 4 3 5
a 3 5 20
a 5 3 20
a 4 6 10
a 6 4 10
a 5 6 20
a 6 5 20
a 5 7 30
a 7 5 30
a 6 8 15
a 8 6 15
a 7 8 10
a 8 7 10
a 7 9 60
a 9 7 60
a 8 10 15
a 10 8 15
a 9 10 40
a 10 9 40